\ENCODING=ISO-8859-1
\Problem name: ilog.cplex

Minimize
 obj1: s0 + s1 + s2 + s3 + s4 + s5 + s6 + s7 + s8 + s9
Subject To
 hsev#0:     h0,9  = 1
 hsev#1:     h1,9  = 1
 hsev#2:     h2,9  = 1
 hsev#3:     h3,9  = 1
 hsev#4:     h4,9  = 1
 hsev#5:     h5,9  = 1
 hsev#6:     h6,9  = 1
 hsev#7:     h7,9  = 1
 hsev#8:     h8,9  = 1
 hsev#9:     h9,9  = 1
 s#10:       - s0 + h0,0  = 0
 s#11:       - s1 + h1,0  = 0
 s#12:       - s2 + h2,0  = 0
 s#13:       - s3 + h3,0  = 0
 s#14:       - s4 + h4,0  = 0
 s#15:       - s5 + h5,0  = 0
 s#16:       - s6 + h6,0  = 0
 s#17:       - s7 + h7,0  = 0
 s#18:       - s8 + h8,0  = 0
 s#19:       - s9 + h9,0  = 0
 propag#20:  - h0,0 + h0,1 >= 0
 propag#21:  - h0,1 + h0,2 >= 0
 propag#22:  - h0,2 + h0,3 >= 0
 propag#23:  - h0,3 + h0,4 >= 0
 propag#24:  - h0,4 + h0,5 >= 0
 propag#25:  - h0,5 + h0,6 >= 0
 propag#26:  - h0,6 + h0,7 >= 0
 propag#27:  - h0,7 + h0,8 >= 0
 propag#28:  h0,9 - h0,8 >= 0
 propag#29:  - h1,0 + h1,1 >= 0
 propag#30:  - h1,1 + h1,2 >= 0
 propag#31:  - h1,2 + h1,3 >= 0
 propag#32:  - h1,3 + h1,4 >= 0
 propag#33:  - h1,4 + h1,5 >= 0
 propag#34:  - h1,5 + h1,6 >= 0
 propag#35:  - h1,6 + h1,7 >= 0
 propag#36:  - h1,7 + h1,8 >= 0
 propag#37:  h1,9 - h1,8 >= 0
 propag#38:  - h2,0 + h2,1 >= 0
 propag#39:  - h2,1 + h2,2 >= 0
 propag#40:  - h2,2 + h2,3 >= 0
 propag#41:  - h2,3 + h2,4 >= 0
 propag#42:  - h2,4 + h2,5 >= 0
 propag#43:  - h2,5 + h2,6 >= 0
 propag#44:  - h2,6 + h2,7 >= 0
 propag#45:  - h2,7 + h2,8 >= 0
 propag#46:  h2,9 - h2,8 >= 0
 propag#47:  - h3,0 + h3,1 >= 0
 propag#48:  - h3,1 + h3,2 >= 0
 propag#49:  - h3,2 + h3,3 >= 0
 propag#50:  - h3,3 + h3,4 >= 0
 propag#51:  - h3,4 + h3,5 >= 0
 propag#52:  - h3,5 + h3,6 >= 0
 propag#53:  - h3,6 + h3,7 >= 0
 propag#54:  - h3,7 + h3,8 >= 0
 propag#55:  h3,9 - h3,8 >= 0
 propag#56:  - h4,0 + h4,1 >= 0
 propag#57:  - h4,1 + h4,2 >= 0
 propag#58:  - h4,2 + h4,3 >= 0
 propag#59:  - h4,3 + h4,4 >= 0
 propag#60:  - h4,4 + h4,5 >= 0
 propag#61:  - h4,5 + h4,6 >= 0
 propag#62:  - h4,6 + h4,7 >= 0
 propag#63:  - h4,7 + h4,8 >= 0
 propag#64:  h4,9 - h4,8 >= 0
 propag#65:  - h5,0 + h5,1 >= 0
 propag#66:  - h5,1 + h5,2 >= 0
 propag#67:  - h5,2 + h5,3 >= 0
 propag#68:  - h5,3 + h5,4 >= 0
 propag#69:  - h5,4 + h5,5 >= 0
 propag#70:  - h5,5 + h5,6 >= 0
 propag#71:  - h5,6 + h5,7 >= 0
 propag#72:  - h5,7 + h5,8 >= 0
 propag#73:  h5,9 - h5,8 >= 0
 propag#74:  - h6,0 + h6,1 >= 0
 propag#75:  - h6,1 + h6,2 >= 0
 propag#76:  - h6,2 + h6,3 >= 0
 propag#77:  - h6,3 + h6,4 >= 0
 propag#78:  - h6,4 + h6,5 >= 0
 propag#79:  - h6,5 + h6,6 >= 0
 propag#80:  - h6,6 + h6,7 >= 0
 propag#81:  - h6,7 + h6,8 >= 0
 propag#82:  h6,9 - h6,8 >= 0
 propag#83:  - h7,0 + h7,1 >= 0
 propag#84:  - h7,1 + h7,2 >= 0
 propag#85:  - h7,2 + h7,3 >= 0
 propag#86:  - h7,3 + h7,4 >= 0
 propag#87:  - h7,4 + h7,5 >= 0
 propag#88:  - h7,5 + h7,6 >= 0
 propag#89:  - h7,6 + h7,7 >= 0
 propag#90:  - h7,7 + h7,8 >= 0
 propag#91:  h7,9 - h7,8 >= 0
 propag#92:  - h8,0 + h8,1 >= 0
 propag#93:  - h8,1 + h8,2 >= 0
 propag#94:  - h8,2 + h8,3 >= 0
 propag#95:  - h8,3 + h8,4 >= 0
 propag#96:  - h8,4 + h8,5 >= 0
 propag#97:  - h8,5 + h8,6 >= 0
 propag#98:  - h8,6 + h8,7 >= 0
 propag#99:  - h8,7 + h8,8 >= 0
 propag#100: h8,9 - h8,8 >= 0
 propag#101: - h9,0 + h9,1 >= 0
 propag#102: - h9,1 + h9,2 >= 0
 propag#103: - h9,2 + h9,3 >= 0
 propag#104: - h9,3 + h9,4 >= 0
 propag#105: - h9,4 + h9,5 >= 0
 propag#106: - h9,5 + h9,6 >= 0
 propag#107: - h9,6 + h9,7 >= 0
 propag#108: - h9,7 + h9,8 >= 0
 propag#109: h9,9 - h9,8 >= 0
 c111#110:   2 h0,0 + h1,0 + h2,0 + h3,0 >= 2
 _edge#111:  h0,1 - x111 >= 0
 c113#112:   2 h0,0 + h1,1 + h2,1 + h3,1 >= 2
 _edge#113:  h0,2 - x112 >= 0
 c115#114:   2 h0,0 + h1,2 + h2,2 + h3,2 >= 2
 _edge#115:  h0,3 - x113 >= 0
 c117#116:   2 h0,0 + h1,3 + h2,3 + h3,3 >= 2
 _edge#117:  h0,4 - x114 >= 0
 c119#118:   2 h0,0 + h1,4 + h2,4 + h3,4 >= 2
 _edge#119:  h0,5 - x115 >= 0
 c121#120:   2 h0,0 + h1,5 + h2,5 + h3,5 >= 2
 _edge#121:  h0,6 - x116 >= 0
 c123#122:   2 h0,0 + h1,6 + h2,6 + h3,6 >= 2
 _edge#123:  h0,7 - x117 >= 0
 c125#124:   2 h0,0 + h1,7 + h2,7 + h3,7 >= 2
 _edge#125:  h0,8 - x118 >= 0
 c127#126:   h0,0 + 2 h1,0 + h4,0 + h5,0 >= 2
 _edge#127:  h1,1 - x119 >= 0
 c129#128:   2 h1,0 + h0,1 + h4,1 + h5,1 >= 2
 _edge#129:  h1,2 - x120 >= 0
 c131#130:   2 h1,0 + h0,2 + h4,2 + h5,2 >= 2
 _edge#131:  h1,3 - x121 >= 0
 c133#132:   2 h1,0 + h0,3 + h4,3 + h5,3 >= 2
 _edge#133:  h1,4 - x122 >= 0
 c135#134:   2 h1,0 + h0,4 + h4,4 + h5,4 >= 2
 _edge#135:  h1,5 - x123 >= 0
 c137#136:   2 h1,0 + h0,5 + h4,5 + h5,5 >= 2
 _edge#137:  h1,6 - x124 >= 0
 c139#138:   2 h1,0 + h0,6 + h4,6 + h5,6 >= 2
 _edge#139:  h1,7 - x125 >= 0
 c141#140:   2 h1,0 + h0,7 + h4,7 + h5,7 >= 2
 _edge#141:  h1,8 - x126 >= 0
 c143#142:   h0,0 + 2 h2,0 + h6,0 + h9,0 >= 2
 _edge#143:  h2,1 - x127 >= 0
 c145#144:   2 h2,0 + h0,1 + h6,1 + h9,1 >= 2
 _edge#145:  h2,2 - x128 >= 0
 c147#146:   2 h2,0 + h0,2 + h6,2 + h9,2 >= 2
 _edge#147:  h2,3 - x129 >= 0
 c149#148:   2 h2,0 + h0,3 + h6,3 + h9,3 >= 2
 _edge#149:  h2,4 - x130 >= 0
 c151#150:   2 h2,0 + h0,4 + h6,4 + h9,4 >= 2
 _edge#151:  h2,5 - x131 >= 0
 c153#152:   2 h2,0 + h0,5 + h6,5 + h9,5 >= 2
 _edge#153:  h2,6 - x132 >= 0
 c155#154:   2 h2,0 + h0,6 + h6,6 + h9,6 >= 2
 _edge#155:  h2,7 - x133 >= 0
 c157#156:   2 h2,0 + h0,7 + h6,7 + h9,7 >= 2
 _edge#157:  h2,8 - x134 >= 0
 c159#158:   h0,0 + 2 h3,0 + h7,0 + h8,0 >= 2
 _edge#159:  h3,1 - x135 >= 0
 c161#160:   2 h3,0 + h0,1 + h7,1 + h8,1 >= 2
 _edge#161:  h3,2 - x136 >= 0
 c163#162:   2 h3,0 + h0,2 + h7,2 + h8,2 >= 2
 _edge#163:  h3,3 - x137 >= 0
 c165#164:   2 h3,0 + h0,3 + h7,3 + h8,3 >= 2
 _edge#165:  h3,4 - x138 >= 0
 c167#166:   2 h3,0 + h0,4 + h7,4 + h8,4 >= 2
 _edge#167:  h3,5 - x139 >= 0
 c169#168:   2 h3,0 + h0,5 + h7,5 + h8,5 >= 2
 _edge#169:  h3,6 - x140 >= 0
 c171#170:   2 h3,0 + h0,6 + h7,6 + h8,6 >= 2
 _edge#171:  h3,7 - x141 >= 0
 c173#172:   2 h3,0 + h0,7 + h7,7 + h8,7 >= 2
 _edge#173:  h3,8 - x142 >= 0
 c175#174:   h1,0 + 2 h4,0 + h6,0 + h8,0 >= 2
 _edge#175:  h4,1 - x143 >= 0
 c177#176:   2 h4,0 + h1,1 + h6,1 + h8,1 >= 2
 _edge#177:  h4,2 - x144 >= 0
 c179#178:   2 h4,0 + h1,2 + h6,2 + h8,2 >= 2
 _edge#179:  h4,3 - x145 >= 0
 c181#180:   2 h4,0 + h1,3 + h6,3 + h8,3 >= 2
 _edge#181:  h4,4 - x146 >= 0
 c183#182:   2 h4,0 + h1,4 + h6,4 + h8,4 >= 2
 _edge#183:  h4,5 - x147 >= 0
 c185#184:   2 h4,0 + h1,5 + h6,5 + h8,5 >= 2
 _edge#185:  h4,6 - x148 >= 0
 c187#186:   2 h4,0 + h1,6 + h6,6 + h8,6 >= 2
 _edge#187:  h4,7 - x149 >= 0
 c189#188:   2 h4,0 + h1,7 + h6,7 + h8,7 >= 2
 _edge#189:  h4,8 - x150 >= 0
 c191#190:   h1,0 + 2 h5,0 + h7,0 + h9,0 >= 2
 _edge#191:  h5,1 - x151 >= 0
 c193#192:   2 h5,0 + h1,1 + h7,1 + h9,1 >= 2
 _edge#193:  h5,2 - x152 >= 0
 c195#194:   2 h5,0 + h1,2 + h7,2 + h9,2 >= 2
 _edge#195:  h5,3 - x153 >= 0
 c197#196:   2 h5,0 + h1,3 + h7,3 + h9,3 >= 2
 _edge#197:  h5,4 - x154 >= 0
 c199#198:   2 h5,0 + h1,4 + h7,4 + h9,4 >= 2
 _edge#199:  h5,5 - x155 >= 0
 c201#200:   2 h5,0 + h1,5 + h7,5 + h9,5 >= 2
 _edge#201:  h5,6 - x156 >= 0
 c203#202:   2 h5,0 + h1,6 + h7,6 + h9,6 >= 2
 _edge#203:  h5,7 - x157 >= 0
 c205#204:   2 h5,0 + h1,7 + h7,7 + h9,7 >= 2
 _edge#205:  h5,8 - x158 >= 0
 c207#206:   h2,0 + h4,0 + 2 h6,0 + h7,0 >= 2
 _edge#207:  h6,1 - x159 >= 0
 c209#208:   2 h6,0 + h2,1 + h4,1 + h7,1 >= 2
 _edge#209:  h6,2 - x160 >= 0
 c211#210:   2 h6,0 + h2,2 + h4,2 + h7,2 >= 2
 _edge#211:  h6,3 - x161 >= 0
 c213#212:   2 h6,0 + h2,3 + h4,3 + h7,3 >= 2
 _edge#213:  h6,4 - x162 >= 0
 c215#214:   2 h6,0 + h2,4 + h4,4 + h7,4 >= 2
 _edge#215:  h6,5 - x163 >= 0
 c217#216:   2 h6,0 + h2,5 + h4,5 + h7,5 >= 2
 _edge#217:  h6,6 - x164 >= 0
 c219#218:   2 h6,0 + h2,6 + h4,6 + h7,6 >= 2
 _edge#219:  h6,7 - x165 >= 0
 c221#220:   2 h6,0 + h2,7 + h4,7 + h7,7 >= 2
 _edge#221:  h6,8 - x166 >= 0
 c223#222:   h3,0 + h5,0 + h6,0 + 2 h7,0 >= 2
 _edge#223:  h7,1 - x167 >= 0
 c225#224:   2 h7,0 + h3,1 + h5,1 + h6,1 >= 2
 _edge#225:  h7,2 - x168 >= 0
 c227#226:   2 h7,0 + h3,2 + h5,2 + h6,2 >= 2
 _edge#227:  h7,3 - x169 >= 0
 c229#228:   2 h7,0 + h3,3 + h5,3 + h6,3 >= 2
 _edge#229:  h7,4 - x170 >= 0
 c231#230:   2 h7,0 + h3,4 + h5,4 + h6,4 >= 2
 _edge#231:  h7,5 - x171 >= 0
 c233#232:   2 h7,0 + h3,5 + h5,5 + h6,5 >= 2
 _edge#233:  h7,6 - x172 >= 0
 c235#234:   2 h7,0 + h3,6 + h5,6 + h6,6 >= 2
 _edge#235:  h7,7 - x173 >= 0
 c237#236:   2 h7,0 + h3,7 + h5,7 + h6,7 >= 2
 _edge#237:  h7,8 - x174 >= 0
 c239#238:   h3,0 + h4,0 + 2 h8,0 + h9,0 >= 2
 _edge#239:  h8,1 - x175 >= 0
 c241#240:   2 h8,0 + h3,1 + h4,1 + h9,1 >= 2
 _edge#241:  h8,2 - x176 >= 0
 c243#242:   2 h8,0 + h3,2 + h4,2 + h9,2 >= 2
 _edge#243:  h8,3 - x177 >= 0
 c245#244:   2 h8,0 + h3,3 + h4,3 + h9,3 >= 2
 _edge#245:  h8,4 - x178 >= 0
 c247#246:   2 h8,0 + h3,4 + h4,4 + h9,4 >= 2
 _edge#247:  h8,5 - x179 >= 0
 c249#248:   2 h8,0 + h3,5 + h4,5 + h9,5 >= 2
 _edge#249:  h8,6 - x180 >= 0
 c251#250:   2 h8,0 + h3,6 + h4,6 + h9,6 >= 2
 _edge#251:  h8,7 - x181 >= 0
 c253#252:   2 h8,0 + h3,7 + h4,7 + h9,7 >= 2
 _edge#253:  h8,8 - x182 >= 0
 c255#254:   h2,0 + h5,0 + h8,0 + 2 h9,0 >= 2
 _edge#255:  h9,1 - x183 >= 0
 c257#256:   2 h9,0 + h2,1 + h5,1 + h8,1 >= 2
 _edge#257:  h9,2 - x184 >= 0
 c259#258:   2 h9,0 + h2,2 + h5,2 + h8,2 >= 2
 _edge#259:  h9,3 - x185 >= 0
 c261#260:   2 h9,0 + h2,3 + h5,3 + h8,3 >= 2
 _edge#261:  h9,4 - x186 >= 0
 c263#262:   2 h9,0 + h2,4 + h5,4 + h8,4 >= 2
 _edge#263:  h9,5 - x187 >= 0
 c265#264:   2 h9,0 + h2,5 + h5,5 + h8,5 >= 2
 _edge#265:  h9,6 - x188 >= 0
 c267#266:   2 h9,0 + h2,6 + h5,6 + h8,6 >= 2
 _edge#267:  h9,7 - x189 >= 0
 c269#268:   2 h9,0 + h2,7 + h5,7 + h8,7 >= 2
 _edge#269:  h9,8 - x190 >= 0
 IloI0:  x111 = 1 <-> 2 h0,0 + h1,0 + h2,0 + h3,0 => 2
 IloI1:  x112 = 1 <-> 2 h0,0 + h1,1 + h2,1 + h3,1 => 2
 IloI2:  x113 = 1 <-> 2 h0,0 + h1,2 + h2,2 + h3,2 => 2
 IloI3:  x114 = 1 <-> 2 h0,0 + h1,3 + h2,3 + h3,3 => 2
 IloI4:  x115 = 1 <-> 2 h0,0 + h1,4 + h2,4 + h3,4 => 2
 IloI5:  x116 = 1 <-> 2 h0,0 + h1,5 + h2,5 + h3,5 => 2
 IloI6:  x117 = 1 <-> 2 h0,0 + h1,6 + h2,6 + h3,6 => 2
 IloI7:  x118 = 1 <-> 2 h0,0 + h1,7 + h2,7 + h3,7 => 2
 IloI8:  x119 = 1 <-> h0,0 + 2 h1,0 + h4,0 + h5,0 => 2
 IloI9:  x120 = 1 <-> 2 h1,0 + h0,1 + h4,1 + h5,1 => 2
 IloI10: x121 = 1 <-> 2 h1,0 + h0,2 + h4,2 + h5,2 => 2
 IloI11: x122 = 1 <-> 2 h1,0 + h0,3 + h4,3 + h5,3 => 2
 IloI12: x123 = 1 <-> 2 h1,0 + h0,4 + h4,4 + h5,4 => 2
 IloI13: x124 = 1 <-> 2 h1,0 + h0,5 + h4,5 + h5,5 => 2
 IloI14: x125 = 1 <-> 2 h1,0 + h0,6 + h4,6 + h5,6 => 2
 IloI15: x126 = 1 <-> 2 h1,0 + h0,7 + h4,7 + h5,7 => 2
 IloI16: x127 = 1 <-> h0,0 + 2 h2,0 + h6,0 + h9,0 => 2
 IloI17: x128 = 1 <-> 2 h2,0 + h0,1 + h6,1 + h9,1 => 2
 IloI18: x129 = 1 <-> 2 h2,0 + h0,2 + h6,2 + h9,2 => 2
 IloI19: x130 = 1 <-> 2 h2,0 + h0,3 + h6,3 + h9,3 => 2
 IloI20: x131 = 1 <-> 2 h2,0 + h0,4 + h6,4 + h9,4 => 2
 IloI21: x132 = 1 <-> 2 h2,0 + h0,5 + h6,5 + h9,5 => 2
 IloI22: x133 = 1 <-> 2 h2,0 + h0,6 + h6,6 + h9,6 => 2
 IloI23: x134 = 1 <-> 2 h2,0 + h0,7 + h6,7 + h9,7 => 2
 IloI24: x135 = 1 <-> h0,0 + 2 h3,0 + h7,0 + h8,0 => 2
 IloI25: x136 = 1 <-> 2 h3,0 + h0,1 + h7,1 + h8,1 => 2
 IloI26: x137 = 1 <-> 2 h3,0 + h0,2 + h7,2 + h8,2 => 2
 IloI27: x138 = 1 <-> 2 h3,0 + h0,3 + h7,3 + h8,3 => 2
 IloI28: x139 = 1 <-> 2 h3,0 + h0,4 + h7,4 + h8,4 => 2
 IloI29: x140 = 1 <-> 2 h3,0 + h0,5 + h7,5 + h8,5 => 2
 IloI30: x141 = 1 <-> 2 h3,0 + h0,6 + h7,6 + h8,6 => 2
 IloI31: x142 = 1 <-> 2 h3,0 + h0,7 + h7,7 + h8,7 => 2
 IloI32: x143 = 1 <-> h1,0 + 2 h4,0 + h6,0 + h8,0 => 2
 IloI33: x144 = 1 <-> 2 h4,0 + h1,1 + h6,1 + h8,1 => 2
 IloI34: x145 = 1 <-> 2 h4,0 + h1,2 + h6,2 + h8,2 => 2
 IloI35: x146 = 1 <-> 2 h4,0 + h1,3 + h6,3 + h8,3 => 2
 IloI36: x147 = 1 <-> 2 h4,0 + h1,4 + h6,4 + h8,4 => 2
 IloI37: x148 = 1 <-> 2 h4,0 + h1,5 + h6,5 + h8,5 => 2
 IloI38: x149 = 1 <-> 2 h4,0 + h1,6 + h6,6 + h8,6 => 2
 IloI39: x150 = 1 <-> 2 h4,0 + h1,7 + h6,7 + h8,7 => 2
 IloI40: x151 = 1 <-> h1,0 + 2 h5,0 + h7,0 + h9,0 => 2
 IloI41: x152 = 1 <-> 2 h5,0 + h1,1 + h7,1 + h9,1 => 2
 IloI42: x153 = 1 <-> 2 h5,0 + h1,2 + h7,2 + h9,2 => 2
 IloI43: x154 = 1 <-> 2 h5,0 + h1,3 + h7,3 + h9,3 => 2
 IloI44: x155 = 1 <-> 2 h5,0 + h1,4 + h7,4 + h9,4 => 2
 IloI45: x156 = 1 <-> 2 h5,0 + h1,5 + h7,5 + h9,5 => 2
 IloI46: x157 = 1 <-> 2 h5,0 + h1,6 + h7,6 + h9,6 => 2
 IloI47: x158 = 1 <-> 2 h5,0 + h1,7 + h7,7 + h9,7 => 2
 IloI48: x159 = 1 <-> h2,0 + h4,0 + 2 h6,0 + h7,0 => 2
 IloI49: x160 = 1 <-> 2 h6,0 + h2,1 + h4,1 + h7,1 => 2
 IloI50: x161 = 1 <-> 2 h6,0 + h2,2 + h4,2 + h7,2 => 2
 IloI51: x162 = 1 <-> 2 h6,0 + h2,3 + h4,3 + h7,3 => 2
 IloI52: x163 = 1 <-> 2 h6,0 + h2,4 + h4,4 + h7,4 => 2
 IloI53: x164 = 1 <-> 2 h6,0 + h2,5 + h4,5 + h7,5 => 2
 IloI54: x165 = 1 <-> 2 h6,0 + h2,6 + h4,6 + h7,6 => 2
 IloI55: x166 = 1 <-> 2 h6,0 + h2,7 + h4,7 + h7,7 => 2
 IloI56: x167 = 1 <-> h3,0 + h5,0 + h6,0 + 2 h7,0 => 2
 IloI57: x168 = 1 <-> 2 h7,0 + h3,1 + h5,1 + h6,1 => 2
 IloI58: x169 = 1 <-> 2 h7,0 + h3,2 + h5,2 + h6,2 => 2
 IloI59: x170 = 1 <-> 2 h7,0 + h3,3 + h5,3 + h6,3 => 2
 IloI60: x171 = 1 <-> 2 h7,0 + h3,4 + h5,4 + h6,4 => 2
 IloI61: x172 = 1 <-> 2 h7,0 + h3,5 + h5,5 + h6,5 => 2
 IloI62: x173 = 1 <-> 2 h7,0 + h3,6 + h5,6 + h6,6 => 2
 IloI63: x174 = 1 <-> 2 h7,0 + h3,7 + h5,7 + h6,7 => 2
 IloI64: x175 = 1 <-> h3,0 + h4,0 + 2 h8,0 + h9,0 => 2
 IloI65: x176 = 1 <-> 2 h8,0 + h3,1 + h4,1 + h9,1 => 2
 IloI66: x177 = 1 <-> 2 h8,0 + h3,2 + h4,2 + h9,2 => 2
 IloI67: x178 = 1 <-> 2 h8,0 + h3,3 + h4,3 + h9,3 => 2
 IloI68: x179 = 1 <-> 2 h8,0 + h3,4 + h4,4 + h9,4 => 2
 IloI69: x180 = 1 <-> 2 h8,0 + h3,5 + h4,5 + h9,5 => 2
 IloI70: x181 = 1 <-> 2 h8,0 + h3,6 + h4,6 + h9,6 => 2
 IloI71: x182 = 1 <-> 2 h8,0 + h3,7 + h4,7 + h9,7 => 2
 IloI72: x183 = 1 <-> h2,0 + h5,0 + h8,0 + 2 h9,0 => 2
 IloI73: x184 = 1 <-> 2 h9,0 + h2,1 + h5,1 + h8,1 => 2
 IloI74: x185 = 1 <-> 2 h9,0 + h2,2 + h5,2 + h8,2 => 2
 IloI75: x186 = 1 <-> 2 h9,0 + h2,3 + h5,3 + h8,3 => 2
 IloI76: x187 = 1 <-> 2 h9,0 + h2,4 + h5,4 + h8,4 => 2
 IloI77: x188 = 1 <-> 2 h9,0 + h2,5 + h5,5 + h8,5 => 2
 IloI78: x189 = 1 <-> 2 h9,0 + h2,6 + h5,6 + h8,6 => 2
 IloI79: x190 = 1 <-> 2 h9,0 + h2,7 + h5,7 + h8,7 => 2
Bounds
 0 <= s0 <= 1
 0 <= s1 <= 1
 0 <= s2 <= 1
 0 <= s3 <= 1
 0 <= s4 <= 1
 0 <= s5 <= 1
 0 <= s6 <= 1
 0 <= s7 <= 1
 0 <= s8 <= 1
 0 <= s9 <= 1
 0 <= h0,9 <= 1
 0 <= h1,9 <= 1
 0 <= h2,9 <= 1
 0 <= h3,9 <= 1
 0 <= h4,9 <= 1
 0 <= h5,9 <= 1
 0 <= h6,9 <= 1
 0 <= h7,9 <= 1
 0 <= h8,9 <= 1
 0 <= h9,9 <= 1
 0 <= h0,0 <= 1
 0 <= h1,0 <= 1
 0 <= h2,0 <= 1
 0 <= h3,0 <= 1
 0 <= h4,0 <= 1
 0 <= h5,0 <= 1
 0 <= h6,0 <= 1
 0 <= h7,0 <= 1
 0 <= h8,0 <= 1
 0 <= h9,0 <= 1
 0 <= h0,1 <= 1
 0 <= h0,2 <= 1
 0 <= h0,3 <= 1
 0 <= h0,4 <= 1
 0 <= h0,5 <= 1
 0 <= h0,6 <= 1
 0 <= h0,7 <= 1
 0 <= h0,8 <= 1
 0 <= h1,1 <= 1
 0 <= h1,2 <= 1
 0 <= h1,3 <= 1
 0 <= h1,4 <= 1
 0 <= h1,5 <= 1
 0 <= h1,6 <= 1
 0 <= h1,7 <= 1
 0 <= h1,8 <= 1
 0 <= h2,1 <= 1
 0 <= h2,2 <= 1
 0 <= h2,3 <= 1
 0 <= h2,4 <= 1
 0 <= h2,5 <= 1
 0 <= h2,6 <= 1
 0 <= h2,7 <= 1
 0 <= h2,8 <= 1
 0 <= h3,1 <= 1
 0 <= h3,2 <= 1
 0 <= h3,3 <= 1
 0 <= h3,4 <= 1
 0 <= h3,5 <= 1
 0 <= h3,6 <= 1
 0 <= h3,7 <= 1
 0 <= h3,8 <= 1
 0 <= h4,1 <= 1
 0 <= h4,2 <= 1
 0 <= h4,3 <= 1
 0 <= h4,4 <= 1
 0 <= h4,5 <= 1
 0 <= h4,6 <= 1
 0 <= h4,7 <= 1
 0 <= h4,8 <= 1
 0 <= h5,1 <= 1
 0 <= h5,2 <= 1
 0 <= h5,3 <= 1
 0 <= h5,4 <= 1
 0 <= h5,5 <= 1
 0 <= h5,6 <= 1
 0 <= h5,7 <= 1
 0 <= h5,8 <= 1
 0 <= h6,1 <= 1
 0 <= h6,2 <= 1
 0 <= h6,3 <= 1
 0 <= h6,4 <= 1
 0 <= h6,5 <= 1
 0 <= h6,6 <= 1
 0 <= h6,7 <= 1
 0 <= h6,8 <= 1
 0 <= h7,1 <= 1
 0 <= h7,2 <= 1
 0 <= h7,3 <= 1
 0 <= h7,4 <= 1
 0 <= h7,5 <= 1
 0 <= h7,6 <= 1
 0 <= h7,7 <= 1
 0 <= h7,8 <= 1
 0 <= h8,1 <= 1
 0 <= h8,2 <= 1
 0 <= h8,3 <= 1
 0 <= h8,4 <= 1
 0 <= h8,5 <= 1
 0 <= h8,6 <= 1
 0 <= h8,7 <= 1
 0 <= h8,8 <= 1
 0 <= h9,1 <= 1
 0 <= h9,2 <= 1
 0 <= h9,3 <= 1
 0 <= h9,4 <= 1
 0 <= h9,5 <= 1
 0 <= h9,6 <= 1
 0 <= h9,7 <= 1
 0 <= h9,8 <= 1
 0 <= x111 <= 1
 0 <= x112 <= 1
 0 <= x113 <= 1
 0 <= x114 <= 1
 0 <= x115 <= 1
 0 <= x116 <= 1
 0 <= x117 <= 1
 0 <= x118 <= 1
 0 <= x119 <= 1
 0 <= x120 <= 1
 0 <= x121 <= 1
 0 <= x122 <= 1
 0 <= x123 <= 1
 0 <= x124 <= 1
 0 <= x125 <= 1
 0 <= x126 <= 1
 0 <= x127 <= 1
 0 <= x128 <= 1
 0 <= x129 <= 1
 0 <= x130 <= 1
 0 <= x131 <= 1
 0 <= x132 <= 1
 0 <= x133 <= 1
 0 <= x134 <= 1
 0 <= x135 <= 1
 0 <= x136 <= 1
 0 <= x137 <= 1
 0 <= x138 <= 1
 0 <= x139 <= 1
 0 <= x140 <= 1
 0 <= x141 <= 1
 0 <= x142 <= 1
 0 <= x143 <= 1
 0 <= x144 <= 1
 0 <= x145 <= 1
 0 <= x146 <= 1
 0 <= x147 <= 1
 0 <= x148 <= 1
 0 <= x149 <= 1
 0 <= x150 <= 1
 0 <= x151 <= 1
 0 <= x152 <= 1
 0 <= x153 <= 1
 0 <= x154 <= 1
 0 <= x155 <= 1
 0 <= x156 <= 1
 0 <= x157 <= 1
 0 <= x158 <= 1
 0 <= x159 <= 1
 0 <= x160 <= 1
 0 <= x161 <= 1
 0 <= x162 <= 1
 0 <= x163 <= 1
 0 <= x164 <= 1
 0 <= x165 <= 1
 0 <= x166 <= 1
 0 <= x167 <= 1
 0 <= x168 <= 1
 0 <= x169 <= 1
 0 <= x170 <= 1
 0 <= x171 <= 1
 0 <= x172 <= 1
 0 <= x173 <= 1
 0 <= x174 <= 1
 0 <= x175 <= 1
 0 <= x176 <= 1
 0 <= x177 <= 1
 0 <= x178 <= 1
 0 <= x179 <= 1
 0 <= x180 <= 1
 0 <= x181 <= 1
 0 <= x182 <= 1
 0 <= x183 <= 1
 0 <= x184 <= 1
 0 <= x185 <= 1
 0 <= x186 <= 1
 0 <= x187 <= 1
 0 <= x188 <= 1
 0 <= x189 <= 1
 0 <= x190 <= 1
Binaries
 s0  s1  s2  s3  s4  s5  s6  s7  s8  s9  h0,9  h1,9  h2,9  h3,9  h4,9  h5,9 
 h6,9  h7,9  h8,9  h9,9  h0,0  h1,0  h2,0  h3,0  h4,0  h5,0  h6,0  h7,0  h8,0 
 h9,0  h0,1  h0,2  h0,3  h0,4  h0,5  h0,6  h0,7  h0,8  h1,1  h1,2  h1,3  h1,4 
 h1,5  h1,6  h1,7  h1,8  h2,1  h2,2  h2,3  h2,4  h2,5  h2,6  h2,7  h2,8  h3,1 
 h3,2  h3,3  h3,4  h3,5  h3,6  h3,7  h3,8  h4,1  h4,2  h4,3  h4,4  h4,5  h4,6 
 h4,7  h4,8  h5,1  h5,2  h5,3  h5,4  h5,5  h5,6  h5,7  h5,8  h6,1  h6,2  h6,3 
 h6,4  h6,5  h6,6  h6,7  h6,8  h7,1  h7,2  h7,3  h7,4  h7,5  h7,6  h7,7  h7,8 
 h8,1  h8,2  h8,3  h8,4  h8,5  h8,6  h8,7  h8,8  h9,1  h9,2  h9,3  h9,4  h9,5 
 h9,6  h9,7  h9,8  x111  x112  x113  x114  x115  x116  x117  x118  x119  x120 
 x121  x122  x123  x124  x125  x126  x127  x128  x129  x130  x131  x132  x133 
 x134  x135  x136  x137  x138  x139  x140  x141  x142  x143  x144  x145  x146 
 x147  x148  x149  x150  x151  x152  x153  x154  x155  x156  x157  x158  x159 
 x160  x161  x162  x163  x164  x165  x166  x167  x168  x169  x170  x171  x172 
 x173  x174  x175  x176  x177  x178  x179  x180  x181  x182  x183  x184  x185 
 x186  x187  x188  x189  x190 
End
